NAME : random_12
COMMENT : 60 random nodes
TYPE : TSP
DIMENSION : 60
EDGE_WEIGHT_TYPE : EUC_2D
NODE_COORD_SECTION
1 187 527
2 73 37
3 646 700
4 901 934
5 548 658
6 626 300
7 810 844
8 122 765
9 305 756
10 872 624
11 233 30
12 848 421
13 467 312
14 300 169
15 200 764
16 878 189
17 999 277
18 390 279
19 742 499
20 53 620
21 643 667
22 623 480
23 101 347
24 591 98
25 654 606
26 695 548
27 485 533
28 293 556
29 477 574
30 880 394
31 262 82
32 742 312
33 792 791
34 643 424
35 622 609
36 595 865
37 522 139
38 635 761
39 315 796
40 471 162
41 448 269
42 349 501
43 123 174
44 378 823
45 550 439
46 911 857
47 695 482
48 514 41
49 50 63
50 613 195
51 272 542
52 201 275
53 596 806
54 926 766
55 83 16
56 937 337
57 596 727
58 272 600
59 388 864
60 643 289
EOF